% Generated by MiniZinc 2.9.3
% Solver library: /home/icwmmarijnisse/Pumpkin/minizinc/lib
% Command line invocation: minizinc --compile --fzn ./instance.fzn --ozn ./instance.ozn --solver pumpkin ../../../../benchmarks/models/tsp/instances/tsp.mzn ../../../../benchmarks/models/tsp/instances/TSP_N10_4.dzn 

predicate pumpkin_circuit(array [int] of var int: x);
array [1..10] of int: X_INTRODUCED_28_ = [0,520,624,204,157,383,781,166,553,977];
array [1..10] of int: X_INTRODUCED_30_ = [520,0,798,945,544,941,1,614,332,501];
array [1..10] of int: X_INTRODUCED_32_ = [624,798,0,20,115,952,372,900,852,827];
array [1..10] of int: X_INTRODUCED_34_ = [204,945,20,0,315,246,60,247,900,581];
array [1..10] of int: X_INTRODUCED_36_ = [157,544,115,315,0,970,81,88,750,498];
array [1..10] of int: X_INTRODUCED_38_ = [383,941,952,246,970,0,836,71,779,546];
array [1..10] of int: X_INTRODUCED_40_ = [781,1,372,60,81,836,0,785,129,132];
array [1..10] of int: X_INTRODUCED_42_ = [166,614,900,247,88,71,785,0,676,487];
array [1..10] of int: X_INTRODUCED_44_ = [553,332,852,900,750,779,129,676,0,970];
array [1..10] of int: X_INTRODUCED_46_ = [977,501,827,581,498,546,132,487,970,0];
array [1..11] of int: X_INTRODUCED_50_ = [1,-1,-1,-1,-1,-1,-1,-1,-1,-1,-1];
var 1..10: X_INTRODUCED_16_;
var 1..10: X_INTRODUCED_17_;
var 1..10: X_INTRODUCED_18_;
var 1..10: X_INTRODUCED_19_;
var 1..10: X_INTRODUCED_20_;
var 1..10: X_INTRODUCED_21_;
var 1..10: X_INTRODUCED_22_;
var 1..10: X_INTRODUCED_23_;
var 1..10: X_INTRODUCED_24_;
var 1..10: X_INTRODUCED_25_;
var 0..9442: Objective:: output_var:: is_defined_var;
var 0..977: X_INTRODUCED_29_ ::var_is_introduced :: is_defined_var;
var 0..945: X_INTRODUCED_31_ ::var_is_introduced :: is_defined_var;
var 0..952: X_INTRODUCED_33_ ::var_is_introduced :: is_defined_var;
var 0..945: X_INTRODUCED_35_ ::var_is_introduced :: is_defined_var;
var 0..970: X_INTRODUCED_37_ ::var_is_introduced :: is_defined_var;
var 0..970: X_INTRODUCED_39_ ::var_is_introduced :: is_defined_var;
var 0..836: X_INTRODUCED_41_ ::var_is_introduced :: is_defined_var;
var 0..900: X_INTRODUCED_43_ ::var_is_introduced :: is_defined_var;
var 0..970: X_INTRODUCED_45_ ::var_is_introduced :: is_defined_var;
var 0..977: X_INTRODUCED_47_ ::var_is_introduced :: is_defined_var;
array [1..10] of var int: Successor:: output_array([1..10]) = [X_INTRODUCED_16_,X_INTRODUCED_17_,X_INTRODUCED_18_,X_INTRODUCED_19_,X_INTRODUCED_20_,X_INTRODUCED_21_,X_INTRODUCED_22_,X_INTRODUCED_23_,X_INTRODUCED_24_,X_INTRODUCED_25_];
array [1..11] of var int: X_INTRODUCED_49_ ::var_is_introduced  = [Objective,X_INTRODUCED_29_,X_INTRODUCED_31_,X_INTRODUCED_33_,X_INTRODUCED_35_,X_INTRODUCED_37_,X_INTRODUCED_39_,X_INTRODUCED_41_,X_INTRODUCED_43_,X_INTRODUCED_45_,X_INTRODUCED_47_];
constraint pumpkin_circuit(Successor);
constraint array_int_element(X_INTRODUCED_16_,X_INTRODUCED_28_,X_INTRODUCED_29_):: defines_var(X_INTRODUCED_29_);
constraint array_int_element(X_INTRODUCED_17_,X_INTRODUCED_30_,X_INTRODUCED_31_):: defines_var(X_INTRODUCED_31_);
constraint array_int_element(X_INTRODUCED_18_,X_INTRODUCED_32_,X_INTRODUCED_33_):: defines_var(X_INTRODUCED_33_);
constraint array_int_element(X_INTRODUCED_19_,X_INTRODUCED_34_,X_INTRODUCED_35_):: defines_var(X_INTRODUCED_35_);
constraint array_int_element(X_INTRODUCED_20_,X_INTRODUCED_36_,X_INTRODUCED_37_):: defines_var(X_INTRODUCED_37_);
constraint array_int_element(X_INTRODUCED_21_,X_INTRODUCED_38_,X_INTRODUCED_39_):: defines_var(X_INTRODUCED_39_);
constraint array_int_element(X_INTRODUCED_22_,X_INTRODUCED_40_,X_INTRODUCED_41_):: defines_var(X_INTRODUCED_41_);
constraint array_int_element(X_INTRODUCED_23_,X_INTRODUCED_42_,X_INTRODUCED_43_):: defines_var(X_INTRODUCED_43_);
constraint array_int_element(X_INTRODUCED_24_,X_INTRODUCED_44_,X_INTRODUCED_45_):: defines_var(X_INTRODUCED_45_);
constraint array_int_element(X_INTRODUCED_25_,X_INTRODUCED_46_,X_INTRODUCED_47_):: defines_var(X_INTRODUCED_47_);
constraint int_lin_eq(X_INTRODUCED_50_,X_INTRODUCED_49_,0):: defines_var(Objective);
solve  minimize Objective;
